Route 1: 6 29 27 24 20 22 21 5 75 2 1 7 3 4 10 30 28 26 23 14 16 19 15 18 17 13 9 12 11 8

Route 2: 48 43 41 42 46 49 40 51 31 35 38 39 37 33 32 36 34 52 50 44 45 47 25

Route 3: 67 63 62 74 69 61 64 65 55 54 53 56 58 60 59 57 68 66 72 80 76 73 70 71 79 81 85 78 77 82 83

Route 4: 93 89 99 100 95 94 92 97 98 91 90 86 88 84 87 96

Vehicles: 4

Distance: 944.97

